22 4
47 108 27 65 72 70 64 33 12 25 72 19 90 53 76 68 59 27 86 78 40 79
42 86 15 70 77 66 62 27 28 43 63 36 98 55 78 55 81 16 92 98 40 59
41 105 33 72 68 53 62 39 28 45 72 38 93 58 87 65 57 40 84 97 54 77
35 82 11 79 67 75 58 31 15 17 77 47 105 60 78 66 74 18 97 92 61 57
